GLPSOL--GLPK LP/MIP Solver 5.0
Parameter(s) specified in the command line:
 --lp ../modeles/2_319.lp --log 2_319.log
Reading problem data from '../modeles/2_319.lp'...
647 rows, 1280 columns, 4476 non-zeros
638 integer variables, all of which are binary
1935 lines were read
GLPK Integer Optimizer 5.0
647 rows, 1280 columns, 4476 non-zeros
638 integer variables, all of which are binary
Preprocessing...
628 constraint coefficient(s) were reduced
647 rows, 1278 columns, 4474 non-zeros
638 integer variables, all of which are binary
Scaling...
 A: min|aij| =  3.931e-05  max|aij| =  4.000e+00  ratio =  1.018e+05
GM: min|aij| =  5.599e-02  max|aij| =  1.786e+01  ratio =  3.190e+02
EQ: min|aij| =  3.135e-03  max|aij| =  1.000e+00  ratio =  3.190e+02
2N: min|aij| =  2.516e-03  max|aij| =  1.752e+00  ratio =  6.964e+02
Constructing initial basis...
Size of triangular part is 647
Solving LP relaxation...
GLPK Simplex Optimizer 5.0
647 rows, 1278 columns, 4474 non-zeros
      0: obj =   4.000000000e+00 inf =   9.500e+00 (5)
     37: obj =   4.999656053e-01 inf =   0.000e+00 (0)
*   145: obj =  -1.414191950e+00 inf =   5.207e-16 (0)
OPTIMAL LP SOLUTION FOUND
Integer optimization begins...
Long-step dual simplex will be used
+   145: mip =     not found yet >=              -inf        (1; 0)
+   199: >>>>>  -1.414191950e+00 >=  -1.414191950e+00 < 0.1% (55; 0)
+   199: mip =  -1.414191950e+00 >=     tree is empty   0.0% (0; 109)
INTEGER OPTIMAL SOLUTION FOUND
Time used:   0.1 secs
Memory used: 1.9 Mb (1975500 bytes)
